166
148
351
78
464
64
300
431
746
19
54
643
471
285
488
225
95
627
469
201
339
149
26
256
661
554
376
147
112
63
340
308
836
563
98
416
14
97
703
32
621
158
105
291
215
462
454
244
174
117
477
204
57
161
587
177
92
355
764
366
166
483
325
12
484
332
484
30
362
16
362
685
99
254
191
510
16
195
79
175
101
226
367
648
14
314
650
161
228
110
0
454
229
86
331
50
161
186
909
85
